1111100 AB
317 345 372 387 402 415 429 442 455 468 1041 1058 1074 1089 1103 1119 1141 1169 1197 1226 1242 1262 1272 1298 1327 1354 1382 1410 1439 290
1111100 AB red
482 495 509 523 552 581 610 631 652 672 693 714 735 756 777 792 806 822 838 854 870 892 912 933 954 974 995 1010 1025
1111100 BA red
280
0000011 AB
319 347 374 402 429 457 1046 1067 1088 1110 1131 1152 1184 1216 1248 1271 1298 1326 1354 1381 1409 1439 292
0000011 AB red
484 504 525 546 566 587 608 628 649 670 691 712 733 753 774 795 816 837 842 858 879 900 921 941 962 983 1004 1025
0000011 BA red
280
